18
11 16
11 10
11 1
11 6
11 4
11 2
16 13
16 3
16 5
16 15
16 6
5 9
5 8
5 0
5 3
5 7
9 6
9 8
9 4
9 2
9 15
4 7
4 1
4 15
4 17
7 10
7 2
7 13
7 17
14 17
14 0
14 1
14 12
14 2
14 10
17 13
17 3
17 12
10 15
10 0
10 12
6 1
6 8
6 13
1 3
1 12
3 2
3 8
0 15
0 12
0 8
8 15
13 12
13 2
